JOBS = 1..3;
MACHINES = 1..10;
SPEED = 1;
time = array3d(JOBS,MACHINES,1..SPEED,[60,84,53,55,64,64,95,44,93,84,84,56,51,96,75,24,89,98,82,65,23,75,75,91,67,21,45,65,98,72]);
energy = array3d(JOBS,MACHINES,1..SPEED,[54,43,58,57,52,52,38,64,39,43,43,57,60,38,47,78,41,37,44,52,79,47,47,40,51,81,63,52,37,48]);
precedence = array2d(JOBS,MACHINES,[1,9,7,6,3,2,0,4,5,8,6,9,0,4,2,8,5,7,3,1,9,6,2,1,7,0,4,5,8,3]);
ME = 1;
TE = 178;
st_old = array2d(JOBS,MACHINES,[95,612,475,420,219,155,0,283,327,528,458,696,0,273,116,640,369,542,191,51,729,489,112,21,564,0,259,424,631,187]);
SpeedScaling = array2d(JOBS,MACHINES,[1,1,1,1,1,1,1,1,1,1,1,1,1,1,1,1,1,1,1,1,1,1,1,1,1,1,1,1,1,1]);
